(set-logic ALL)
(declare-const k Int)
(declare-fun s () (_ BitVec k))
(declare-fun t () (_ BitVec k))
(assert (distinct (bvmul s (bvlshr (bvneg (_ bv0 k)) t)) (bvmul s (bvlshr (bvnot t) t))))
(check-sat)
